# Bead-spring polymer simulation with small-molecule diffusion - soft
# 160-mers
# 25 chains
# FENE potential repulsive all sites

units lj

neighbor	0.4 bin
neigh_modify	every 1 delay 5 check yes

atom_style 	molecular

# soft potential for initial pushoff
pair_style	soft 1.12246
pair_modify	shift yes
bond_style	fene

# filename of the data-file (or restart-file) to be used
read_data	newdataNbead160.txt
#read_restart	restart0

# pair coefficients 
#pair_coeff	1 1 1.0 1.0 1.12246
pair_coeff	* * 10.0

bond_coeff	1 30.0 1.5 1.0 1.0

#special_bonds	lj 0.0 1.0 1.0

# set the timestep in the specified units
timestep	0.006

thermo_style	one

# set the parameters here
fix 1 all nve
#fix 2 all temp/rescale 1 0.0 1.0 0.05 1.0
fix 3 all langevin 1.0 1.0 1.0 39253


reset_timestep 	0

# change the 8000 to change how often to save the positions of the atoms
dump 		1 all custom 500 position_soft.lammpstrj id type xs ys zs ix iy iz

# how often to output thermodynamic data
thermo		100

# how often to outout restart files and their names
restart		5000 restartsoft1 restartsoft2

# specifies the run length in timesteps
run		5000
undump 1
