# Bead-spring polymer simulation with small-molecule diffusion - lj
# 160-mers
# 25 chains
# FENE potential repulsive all sites, with interactive temperature

units lj

shell	       echo 1.0 > Tempfile.txt

variable       myTempStr file Tempfile.txt
variable       myTemp equal v_myTempStr

neighbor	0.4 bin
neigh_modify	every 1 delay 5 check yes

atom_style 	molecular

# soft potential for initial pushoff
pair_style	lj/cut 1.12246
pair_modify	shift yes
bond_style	fene

# filename of the data-file (or restart-file) to be used
#read_data	newdataNbead1.txt
read_restart	restartequil1

# pair coefficients 
pair_coeff	* * 1.0 1.0
#pair_coeff	* * 10.0

bond_coeff	1 30.0 1.5 1.0 1.0

#special_bonds	lj 0.0 1.0 1.0

# set the timestep in the specified units
timestep	0.002

thermo_style	one

# set the parameters here
fix 1 all nve
#fix 2 all temp/rescale 1 0.0 1.0 0.05 1.0
fix 3 all langevin v_myTemp 1.0 1.0 39253

# set Interactive Molecular Dynamics

fix comm all imd 5680 trate 5 unwrap on #fscale #10.0

reset_timestep 	0

# change the 8000 to change how often to save the positions of the atoms
#dump 		1 all custom 500 position_imd.lammpstrj id type xs ys zs ix iy iz

# how often to output thermodynamic data
thermo		100

# how often to outout restart files and their names
#restart       5000000 restartimd1 restartimd2

label          loop2here

# specifies the run length in timesteps
run            2000
shell          head -n 2 Temp.txt | tail -n 1 >> Tempfile.txt
next           myTempStr
jump           imdinput.txt loop2here
#undump 1
